1 1 -2 0
1 1 3 0
1 1 -4 0
1 -1 5 0
1 -1 6 0
1 -2 3 0
1 2 4 0
1 2 -7 0
1 2 6 0
1 -8 9 0
1 8 -3 0
1 8 -4 0
1 -8 -10 0
1 -8 -7 0
1 -8 6 0
1 -11 -9 0
1 11 12 0
1 11 -3 0
1 11 13 0
1 11 10 0
1 11 -8 0
1 11 -7 0
1 -4 14 0
1 4 -15 0
1 4 16 0
1 -4 -2 0
1 -4 17 0
1 4 1 0
1 -4 6 0
1 6 14 0
1 -6 16 0
1 -6 11 0
1 6 -2 0
1 -6 -4 0
1 6 -18 0
1 6 17 0
1 6 19 0
1 6 -8 0
1 3 -14 0
1 -3 -20 0
1 3 21 0
1 -3 -11 0
1 3 22 0
1 -3 18 0
1 3 23 0
1 7 -21 0
1 -7 -11 0
1 -7 -18 0
1 -7 -23 0
1 -7 8 0
1 -7 -1 0
1 -7 24 0
1 19 -9 0
1 -19 -4 0
1 19 -13 0
1 -19 10 0
1 16 9 0
1 -16 25 0
1 -16 -21 0
1 16 -4 0
1 16 10 0
1 16 19 0
1 16 -6 0
1 -17 9 0
1 -17 25 0
1 -17 -15 0
1 17 -26 0
1 -17 27 0
1 -17 -13 0
1 17 23 0
1 15 -9 0
1 15 25 0
1 -15 -26 0
1 -15 -20 0
1 15 4 0
1 15 13 0
1 -15 -17 0
1 -15 -28 0
1 -15 -6 0
1 10 -29 0
1 -10 -25 0
1 10 15 0
1 -10 30 0
1 10 -31 0
1 10 -32 0
1 -10 19 0
1 10 8 0
1 -10 -33 0
1 -25 -29 0
1 -25 -34 0
1 25 -15 0
1 -25 16 0
1 25 -11 0
1 -25 30 0
1 25 -35 0
1 -25 -10 0
1 25 19 0
1 25 33 0
1 13 -36 0
1 13 -14 0
1 -13 11 0
1 -13 -30 0
1 13 37 0
1 13 38 0
1 -13 -17 0
1 -13 -19 0
1 13 8 0
1 9 -36 0
1 9 39 0
1 -9 14 0
1 -9 -15 0
1 -9 11 0
1 -9 30 0
1 -9 -37 0
1 -9 -18 0
1 9 -17 0
1 -9 -19 0
1 -9 -8 0
1 -31 25 0
1 -31 26 0
1 31 -27 0
1 -31 -10 0
1 31 28 0
1 -34 -25 0
1 34 14 0
1 34 -26 0
1 34 -27 0
1 -34 31 0
1 34 10 0
1 35 26 0
1 35 -37 0
1 -35 10 0
1 -35 -40 0
1 -29 25 0
1 -29 27 0
1 29 35 0
1 29 -40 0
1 29 -28 0
1 -28 29 0
1 -28 -34 0
1 -28 -15 0
1 28 27 0
1 28 -41 0
1 -28 -35 0
1 28 -31 0
1 28 -17 0
1 28 -42 0
1 27 34 0
1 -27 -15 0
1 27 41 0
1 27 35 0
1 -27 -28 0
1 40 -30 0
1 -40 35 0
1 40 -31 0
1 40 -43 0
1 40 -44 0
1 -40 -45 0
1 40 -33 0
1 -26 46 0
1 26 -41 0
1 -26 -47 0
1 26 -35 0
1 -26 31 0
1 26 44 0
1 -26 -45 0
1 26 -33 0
1 -5 48 0
1 5 -49 0
1 -5 50 0
1 -5 51 0
1 5 -1 0
1 -49 48 0
1 -49 -52 0
1 -49 2 0
1 49 50 0
1 -49 51 0
1 -53 -48 0
1 53 -52 0
1 -53 -54 0
1 53 -12 0
1 53 -8 0
1 12 -48 0
1 -12 52 0
1 -12 -55 0
1 -12 11 0
1 12 -56 0
1 -12 53 0
1 -52 20 0
1 -52 -57 0
1 52 21 0
1 -52 12 0
1 -52 49 0
1 -52 51 0
1 -52 -23 0
1 52 58 0
1 52 -53 0
1 -52 -5 0
1 51 21 0
1 -51 58 0
1 51 53 0
1 51 5 0
1 48 59 0
1 -48 49 0
1 -48 -50 0
1 -48 53 0
1 -48 5 0
1 -50 -48 0
1 50 12 0
1 -50 -49 0
1 -58 -52 0
1 58 -21 0
1 58 54 0
1 58 -3 0
1 -58 -51 0
1 -58 -56 0
1 58 19 0
1 -21 -55 0
1 21 16 0
1 -21 54 0
1 -21 -3 0
1 -21 51 0
1 21 -56 0
1 -21 7 0
1 -23 52 0
1 23 -60 0
1 -23 61 0
1 -23 -3 0
1 23 51 0
1 23 62 0
1 -23 -17 0
1 23 56 0
1 -23 -63 0
1 -23 -7 0
1 20 -56 0
1 20 -52 0
1 -20 -15 0
1 20 -60 0
1 20 -61 0
1 -20 -51 0
1 20 -62 0
1 -20 -64 0
1 -20 -63 0
1 -20 -7 0
1 54 -65 0
1 -54 56 0
1 54 -36 0
1 -54 20 0
1 -54 21 0
1 -54 66 0
1 -54 67 0
1 -54 37 0
1 -54 -18 0
1 -54 23 0
1 -54 -58 0
1 -54 -53 0
1 56 65 0
1 56 36 0
1 -56 21 0
1 -56 -54 0
1 -56 -12 0
1 56 -67 0
1 56 -37 0
1 56 -18 0
1 -56 23 0
1 56 -68 0
1 56 -53 0
1 -55 65 0
1 55 -62 0
1 -55 -58 0
1 55 53 0
1 -62 65 0
1 62 -20 0
1 62 55 0
1 -62 -21 0
1 62 12 0
1 62 67 0
1 62 23 0
1 -62 -69 0
1 62 -53 0
1 -18 9 0
1 18 -14 0
1 -18 -54 0
1 -18 61 0
1 -18 -3 0
1 18 -4 0
1 -18 -13 0
1 18 -64 0
1 -14 -9 0
1 -14 -34 0
1 14 54 0
1 -14 -61 0
1 -14 3 0
1 14 -4 0
1 -14 13 0
1 -14 18 0
1 14 56 0
1 14 -64 0
1 14 -63 0
1 14 -7 0
1 14 6 0
1 -37 70 0
1 37 9 0
1 -37 -36 0
1 37 -54 0
1 37 60 0
1 37 61 0
1 37 71 0
1 -37 35 0
1 -37 -56 0
1 -37 64 0
1 -36 -9 0
1 -36 -54 0
1 36 60 0
1 36 71 0
1 36 -37 0
1 36 -56 0
1 -36 -64 0
1 36 63 0
1 61 36 0
1 -61 14 0
1 61 -20 0
1 -61 72 0
1 -61 30 0
1 -61 37 0
1 -61 -18 0
1 -61 23 0
1 -61 -73 0
1 61 45 0
1 -61 33 0
1 -63 -36 0
1 63 14 0
1 63 -72 0
1 63 47 0
1 63 30 0
1 -63 74 0
1 -63 37 0
1 63 -18 0
1 63 -73 0
1 -63 33 0
1 60 36 0
1 60 14 0
1 -60 -75 0
1 60 72 0
1 -60 -76 0
1 -60 67 0
1 60 37 0
1 -60 -23 0
1 60 -64 0
1 -60 -77 0
1 -64 14 0
1 64 -72 0
1 64 -67 0
1 64 37 0
1 64 -78 0
1 30 -26 0
1 -30 -61 0
1 30 22 0
1 30 -67 0
1 -30 13 0
1 -30 -71 0
1 30 -10 0
1 30 -40 0
1 -30 -63 0
1 -30 24 0
1 30 33 0
1 33 -65 0
1 -33 9 0
1 -33 -70 0
1 -33 -25 0
1 -33 -61 0
1 -33 -22 0
1 33 -30 0
1 -33 -71 0
1 -33 -13 0
1 47 -70 0
1 47 -39 0
1 47 -26 0
1 47 61 0
1 47 -76 0
1 47 22 0
1 47 -71 0
1 -47 -38 0
1 -47 -32 0
1 47 -63 0
1 -45 70 0
1 -45 79 0
1 -45 26 0
1 -45 -61 0
1 45 -22 0
1 45 71 0
1 45 38 0
1 -45 32 0
1 45 -40 0
1 -45 -24 0
1 45 -77 0
1 71 70 0
1 -71 80 0
1 71 -81 0
1 -71 41 0
1 -71 30 0
1 -71 4 0
1 71 37 0
1 71 82 0
1 71 83 0
1 -71 44 0
1 71 -45 0
1 71 33 0
1 -70 -36 0
1 -70 -80 0
1 -70 41 0
1 -70 47 0
1 70 30 0
1 70 71 0
1 70 37 0
1 -70 -6 0
1 70 82 0
1 -70 45 0
1 -22 36 0
1 -22 -80 0
1 22 -84 0
1 -22 47 0
1 22 -3 0
1 22 -30 0
1 22 -37 0
1 22 -85 0
1 22 73 0
1 22 45 0
1 -24 -36 0
1 -24 -80 0
1 -24 84 0
1 24 72 0
1 24 47 0
1 -24 -22 0
1 -24 -30 0
1 24 -37 0
1 -24 -7 0
1 24 -82 0
1 -24 73 0
1 24 45 0
1 -24 33 0
1 41 70 0
1 41 39 0
1 41 26 0
1 -41 -79 0
1 41 27 0
1 -41 -72 0
1 -41 71 0
1 41 -40 0
1 -41 28 0
1 41 -44 0
1 -44 39 0
1 44 -79 0
1 -44 -26 0
1 44 -41 0
1 44 71 0
1 44 38 0
1 44 -32 0
1 -44 40 0
1 -44 28 0
1 -44 73 0
1 -81 -39 0
1 -81 79 0
1 81 46 0
1 -81 -83 0
1 -81 -84 0
1 -81 -38 0
1 -81 32 0
1 81 -43 0
1 -83 -70 0
1 83 79 0
1 -83 46 0
1 83 -81 0
1 83 -32 0
1 83 43 0
1 -83 42 0
1 83 85 0
1 32 -79 0
1 -32 86 0
1 -32 87 0
1 -32 81 0
1 -32 -41 0
1 -32 -47 0
1 -32 88 0
1 32 83 0
1 79 -25 0
1 -79 -86 0
1 -79 87 0
1 -79 -47 0
1 79 -89 0
1 79 -32 0
1 -79 -88 0
1 -79 -44 0
1 38 90 0
1 -38 -80 0
1 -38 -41 0
1 38 47 0
1 38 13 0
1 38 91 0
1 38 82 0
1 -38 83 0
1 38 44 0
1 38 -45 0
1 -39 -9 0
1 -39 -90 0
1 -39 -80 0
1 39 81 0
1 39 41 0
1 39 47 0
1 39 -38 0
1 39 91 0
1 -39 82 0
1 -39 -83 0
1 -87 -79 0
1 87 -46 0
1 87 -80 0
1 87 43 0
1 87 -32 0
1 87 88 0
1 88 -79 0
1 -88 -87 0
1 88 92 0
1 88 43 0
1 -88 -82 0
1 -88 -42 0
1 86 46 0
1 86 92 0
1 -86 -89 0
1 86 43 0
1 86 -42 0
1 89 79 0
1 -89 86 0
1 89 -92 0
1 89 -43 0
1 89 -42 0
1 42 86 0
1 -42 -92 0
1 -42 81 0
1 42 88 0
1 -42 83 0
1 -92 -86 0
1 -92 -87 0
1 92 81 0
1 92 -89 0
1 -92 -88 0
1 -92 -42 0
1 43 -86 0
1 -43 89 0
1 -43 88 0
1 -43 -83 0
1 46 -26 0
1 46 86 0
1 46 -87 0
1 -46 -81 0
1 46 88 0
1 46 83 0
1 -67 -65 0
1 67 59 0
1 -67 -57 0
1 67 -55 0
1 67 -54 0
1 -67 60 0
1 67 30 0
1 67 93 0
1 67 94 0
1 67 62 0
1 -65 59 0
1 -65 -57 0
1 65 -55 0
1 -65 -54 0
1 -65 -67 0
1 -65 -62 0
1 65 33 0
1 76 -57 0
1 -76 -95 0
1 76 -60 0
1 -76 93 0
1 -76 69 0
1 76 68 0
1 -76 64 0
1 76 77 0
1 77 -59 0
1 77 95 0
1 -77 -76 0
1 77 -93 0
1 -57 65 0
1 57 52 0
1 57 84 0
1 -57 -94 0
1 57 85 0
1 57 73 0
1 57 -77 0
1 94 -84 0
1 -94 72 0
1 94 76 0
1 -94 -67 0
1 -94 -51 0
1 -94 -85 0
1 -94 -77 0
1 59 65 0
1 59 -76 0
1 -93 65 0
1 93 67 0
1 -93 50 0
1 93 -77 0
1 -72 57 0
1 -72 95 0
1 -72 41 0
1 72 -61 0
1 -72 22 0
1 72 94 0
1 72 -68 0
1 72 63 0
1 72 73 0
1 72 -24 0
1 -73 95 0
1 -73 -60 0
1 -73 63 0
1 -73 61 0
1 -73 72 0
1 73 22 0
1 -73 -94 0
1 -73 -69 0
1 73 68 0
1 -73 -64 0
1 -73 44 0
1 -73 -24 0
1 -84 -78 0
1 84 -95 0
1 84 -66 0
1 -84 81 0
1 -84 -75 0
1 84 94 0
1 84 -68 0
1 -84 -74 0
1 -84 24 0
1 -85 57 0
1 85 84 0
1 -85 75 0
1 85 96 0
1 -85 22 0
1 -85 -69 0
1 -85 68 0
1 85 83 0
1 -85 -78 0
1 -85 -74 0
1 -66 -68 0
1 -66 54 0
1 -66 -80 0
1 -66 -84 0
1 -66 -72 0
1 -66 -76 0
1 -66 -91 0
1 66 82 0
1 -66 -73 0
1 66 -77 0
1 -68 90 0
1 -68 80 0
1 -68 66 0
1 68 -84 0
1 68 -72 0
1 -68 -91 0
1 68 -82 0
1 68 73 0
1 -68 -77 0
1 95 55 0
1 95 84 0
1 -95 -72 0
1 95 76 0
1 -95 -85 0
1 95 73 0
1 -95 77 0
1 69 84 0
1 -69 -72 0
1 -69 -76 0
1 69 -73 0
1 69 -77 0
1 -80 70 0
1 80 -39 0
1 80 96 0
1 80 -22 0
1 -80 71 0
1 -80 -38 0
1 -80 -82 0
1 -80 74 0
1 80 -24 0
1 -82 -70 0
1 82 39 0
1 82 66 0
1 82 -75 0
1 82 22 0
1 -82 -71 0
1 -82 38 0
1 82 -88 0
1 -82 -68 0
1 82 -78 0
1 -82 -24 0
1 -90 -66 0
1 90 91 0
1 -90 -68 0
1 -90 74 0
1 -91 39 0
1 -91 -90 0
1 91 -66 0
1 -91 96 0
1 91 38 0
1 -91 -89 0
1 91 68 0
1 91 78 0
1 -91 -74 0
1 -96 -84 0
1 -96 -61 0
1 96 -82 0
1 -96 85 0
1 -74 -90 0
1 -74 -80 0
1 -74 -96 0
1 -74 91 0
1 74 82 0
1 -74 -63 0
1 75 78 0
1 75 80 0
1 -75 60 0
1 -75 84 0
1 75 91 0
1 -75 -82 0
1 -75 -85 0
1 78 -90 0
1 -78 -80 0
1 78 84 0
1 -78 75 0
1 -78 -91 0
1 -78 -64 0
1 -78 -85 0
